c nIsolatedPIs 0
c maxPI 32
p cnf 175 430
c gate 33 -15 31 0
-15 -33 0
31 -33 0
15 -31 33 0
c gate 34 -14 30 0
-14 -34 0
30 -34 0
14 -30 34 0
c gate 35 -33 -34 0
-33 -35 0
-34 -35 0
33 34 35 0
c gate 36 13 -29 0
13 -36 0
-29 -36 0
-13 29 36 0
c gate 37 -12 28 0
-12 -37 0
28 -37 0
12 -28 37 0
c gate 38 -13 29 0
-13 -38 0
29 -38 0
13 -29 38 0
c gate 39 -37 -38 0
-37 -39 0
-38 -39 0
37 38 39 0
c gate 40 11 -27 0
11 -40 0
-27 -40 0
-11 27 40 0
c gate 41 -10 26 0
-10 -41 0
26 -41 0
10 -26 41 0
c gate 42 -11 27 0
-11 -42 0
27 -42 0
11 -27 42 0
c gate 43 -41 -42 0
-41 -43 0
-42 -43 0
41 42 43 0
c gate 44 9 25 0
9 -44 0
25 -44 0
-9 -25 44 0
c gate 45 -9 -25 0
-9 -45 0
-25 -45 0
9 25 45 0
c gate 46 -44 -45 0
-44 -46 0
-45 -46 0
44 45 46 0
c gate 47 8 -24 0
8 -47 0
-24 -47 0
-8 24 47 0
c gate 48 -46 47 0
-46 -48 0
47 -48 0
46 -47 48 0
c gate 49 10 -26 0
10 -49 0
-26 -49 0
-10 26 49 0
c gate 50 9 -25 0
9 -50 0
-25 -50 0
-9 25 50 0
c gate 51 -49 -50 0
-49 -51 0
-50 -51 0
49 50 51 0
c gate 52 -48 51 0
-48 -52 0
51 -52 0
48 -51 52 0
c gate 53 43 -52 0
43 -53 0
-52 -53 0
-43 52 53 0
c gate 54 -40 -53 0
-40 -54 0
-53 -54 0
40 53 54 0
c gate 55 12 -28 0
12 -55 0
-28 -55 0
-12 28 55 0
c gate 56 54 -55 0
54 -56 0
-55 -56 0
-54 55 56 0
c gate 57 39 -56 0
39 -57 0
-56 -57 0
-39 56 57 0
c gate 58 -36 -57 0
-36 -58 0
-57 -58 0
36 57 58 0
c gate 59 14 -30 0
14 -59 0
-30 -59 0
-14 30 59 0
c gate 60 58 -59 0
58 -60 0
-59 -60 0
-58 59 60 0
c gate 61 -1 17 0
-1 -61 0
17 -61 0
1 -17 61 0
c gate 62 18 61 0
18 -62 0
61 -62 0
-18 -61 62 0
c gate 63 2 -62 0
2 -63 0
-62 -63 0
-2 62 63 0
c gate 64 -18 -61 0
-18 -64 0
-61 -64 0
18 61 64 0
c gate 65 3 -19 0
3 -65 0
-19 -65 0
-3 19 65 0
c gate 66 -64 -65 0
-64 -66 0
-65 -66 0
64 65 66 0
c gate 67 -63 66 0
-63 -67 0
66 -67 0
63 -66 67 0
c gate 68 -4 20 0
-4 -68 0
20 -68 0
4 -20 68 0
c gate 69 -3 19 0
-3 -69 0
19 -69 0
3 -19 69 0
c gate 70 -68 -69 0
-68 -70 0
-69 -70 0
68 69 70 0
c gate 71 -67 70 0
-67 -71 0
70 -71 0
67 -70 71 0
c gate 72 4 -20 0
4 -72 0
-20 -72 0
-4 20 72 0
c gate 73 5 -21 0
5 -73 0
-21 -73 0
-5 21 73 0
c gate 74 -72 -73 0
-72 -74 0
-73 -74 0
72 73 74 0
c gate 75 -71 74 0
-71 -75 0
74 -75 0
71 -74 75 0
c gate 76 -6 22 0
-6 -76 0
22 -76 0
6 -22 76 0
c gate 77 -5 21 0
-5 -77 0
21 -77 0
5 -21 77 0
c gate 78 -76 -77 0
-76 -78 0
-77 -78 0
76 77 78 0
c gate 79 -75 78 0
-75 -79 0
78 -79 0
75 -78 79 0
c gate 80 7 -23 0
7 -80 0
-23 -80 0
-7 23 80 0
c gate 81 6 -22 0
6 -81 0
-22 -81 0
-6 22 81 0
c gate 82 -80 -81 0
-80 -82 0
-81 -82 0
80 81 82 0
c gate 83 -79 82 0
-79 -83 0
82 -83 0
79 -82 83 0
c gate 84 8 24 0
8 -84 0
24 -84 0
-8 -24 84 0
c gate 85 -8 -24 0
-8 -85 0
-24 -85 0
8 24 85 0
c gate 86 -84 -85 0
-84 -86 0
-85 -86 0
84 85 86 0
c gate 87 -7 23 0
-7 -87 0
23 -87 0
7 -23 87 0
c gate 88 -86 -87 0
-86 -88 0
-87 -88 0
86 87 88 0
c gate 89 -83 88 0
-83 -89 0
88 -89 0
83 -88 89 0
c gate 90 -46 89 0
-46 -90 0
89 -90 0
46 -89 90 0
c gate 91 39 43 0
39 -91 0
43 -91 0
-39 -43 91 0
c gate 92 90 91 0
90 -92 0
91 -92 0
-90 -91 92 0
c gate 93 60 -92 0
60 -93 0
-92 -93 0
-60 92 93 0
c gate 94 35 -93 0
35 -94 0
-93 -94 0
-35 93 94 0
c gate 95 16 -32 0
16 -95 0
-32 -95 0
-16 32 95 0
c gate 96 -16 32 0
-16 -96 0
32 -96 0
16 -32 96 0
c gate 97 -95 -96 0
-95 -97 0
-96 -97 0
95 96 97 0
c gate 98 94 -97 0
94 -98 0
-97 -98 0
-94 97 98 0
c gate 99 15 -31 0
15 -99 0
-31 -99 0
-15 31 99 0
c gate 100 35 -60 0
35 -100 0
-60 -100 0
-35 60 100 0
c gate 101 -99 -100 0
-99 -101 0
-100 -101 0
99 100 101 0
c gate 102 98 101 0
98 -102 0
101 -102 0
-98 -101 102 0
c gate 103 -41 -49 0
-41 -103 0
-49 -103 0
41 49 103 0
c gate 104 11 27 0
11 -104 0
27 -104 0
-11 -27 104 0
c gate 105 -11 -27 0
-11 -105 0
-27 -105 0
11 27 105 0
c gate 106 -104 -105 0
-104 -106 0
-105 -106 0
104 105 106 0
c gate 107 103 -106 0
103 -107 0
-106 -107 0
-103 106 107 0
c gate 108 -47 -107 0
-47 -108 0
-107 -108 0
47 107 108 0
c gate 109 -37 -55 0
-37 -109 0
-55 -109 0
37 55 109 0
c gate 110 -36 -38 0
-36 -110 0
-38 -110 0
36 38 110 0
c gate 111 109 110 0
109 -111 0
110 -111 0
-109 -110 111 0
c gate 112 54 -111 0
54 -112 0
-111 -112 0
-54 111 112 0
c gate 113 -33 -99 0
-33 -113 0
-99 -113 0
33 99 113 0
c gate 114 -34 -59 0
-34 -114 0
-59 -114 0
34 59 114 0
c gate 115 113 114 0
113 -115 0
114 -115 0
-113 -114 115 0
c gate 116 39 -115 0
39 -116 0
-115 -116 0
-39 115 116 0
c gate 117 58 116 0
58 -117 0
116 -117 0
-58 -116 117 0
c gate 118 -112 -117 0
-112 -118 0
-117 -118 0
112 117 118 0
c gate 119 43 -118 0
43 -119 0
-118 -119 0
-43 118 119 0
c gate 120 -108 -119 0
-108 -120 0
-119 -120 0
108 119 120 0
c gate 121 90 -120 0
90 -121 0
-120 -121 0
-90 120 121 0
c gate 122 -2 -18 0
-2 -122 0
-18 -122 0
2 18 122 0
c gate 123 1 17 0
1 -123 0
17 -123 0
-1 -17 123 0
c gate 124 -122 123 0
-122 -124 0
123 -124 0
122 -123 124 0
c gate 125 3 19 0
3 -125 0
19 -125 0
-3 -19 125 0
c gate 126 2 18 0
2 -126 0
18 -126 0
-2 -18 126 0
c gate 127 -125 -126 0
-125 -127 0
-126 -127 0
125 126 127 0
c gate 128 -124 127 0
-124 -128 0
127 -128 0
124 -127 128 0
c gate 129 -4 -20 0
-4 -129 0
-20 -129 0
4 20 129 0
c gate 130 -3 -19 0
-3 -130 0
-19 -130 0
3 19 130 0
c gate 131 -129 -130 0
-129 -131 0
-130 -131 0
129 130 131 0
c gate 132 -128 131 0
-128 -132 0
131 -132 0
128 -131 132 0
c gate 133 5 21 0
5 -133 0
21 -133 0
-5 -21 133 0
c gate 134 4 20 0
4 -134 0
20 -134 0
-4 -20 134 0
c gate 135 -133 -134 0
-133 -135 0
-134 -135 0
133 134 135 0
c gate 136 -132 135 0
-132 -136 0
135 -136 0
132 -135 136 0
c gate 137 -6 -22 0
-6 -137 0
-22 -137 0
6 22 137 0
c gate 138 -5 -21 0
-5 -138 0
-21 -138 0
5 21 138 0
c gate 139 -137 -138 0
-137 -139 0
-138 -139 0
137 138 139 0
c gate 140 -136 139 0
-136 -140 0
139 -140 0
136 -139 140 0
c gate 141 7 23 0
7 -141 0
23 -141 0
-7 -23 141 0
c gate 142 6 22 0
6 -142 0
22 -142 0
-6 -22 142 0
c gate 143 -141 -142 0
-141 -143 0
-142 -143 0
141 142 143 0
c gate 144 -140 143 0
-140 -144 0
143 -144 0
140 -143 144 0
c gate 145 -44 -84 0
-44 -145 0
-84 -145 0
44 84 145 0
c gate 146 -7 -23 0
-7 -146 0
-23 -146 0
7 23 146 0
c gate 147 -85 -146 0
-85 -147 0
-146 -147 0
85 146 147 0
c gate 148 145 -147 0
145 -148 0
-147 -148 0
-145 147 148 0
c gate 149 -45 -103 0
-45 -149 0
-103 -149 0
45 103 149 0
c gate 150 -148 149 0
-148 -150 0
149 -150 0
148 -149 150 0
c gate 151 106 145 0
106 -151 0
145 -151 0
-106 -145 151 0
c gate 152 150 151 0
150 -152 0
151 -152 0
-150 -151 152 0
c gate 153 144 152 0
144 -153 0
152 -153 0
-144 -152 153 0
c gate 154 10 26 0
10 -154 0
26 -154 0
-10 -26 154 0
c gate 155 -104 -154 0
-104 -155 0
-154 -155 0
104 154 155 0
c gate 156 -150 155 0
-150 -156 0
155 -156 0
150 -155 156 0
c gate 157 -105 -109 0
-105 -157 0
-109 -157 0
105 109 157 0
c gate 158 -156 157 0
-156 -158 0
157 -158 0
156 -157 158 0
c gate 159 -153 158 0
-153 -159 0
158 -159 0
153 -158 159 0
c gate 160 144 -146 0
144 -160 0
-146 -160 0
-144 146 160 0
c gate 161 -158 160 0
-158 -161 0
160 -161 0
158 -160 161 0
c gate 162 -159 -161 0
-159 -162 0
-161 -162 0
159 161 162 0
c gate 163 86 160 0
86 -163 0
160 -163 0
-86 -160 163 0
c gate 164 162 163 0
162 -164 0
163 -164 0
-162 -163 164 0
c gate 165 -97 -110 0
-97 -165 0
-110 -165 0
97 110 165 0
c gate 166 -113 -114 0
-113 -166 0
-114 -166 0
113 114 166 0
c gate 167 165 166 0
165 -167 0
166 -167 0
-165 -166 167 0
c gate 168 159 -167 0
159 -168 0
-167 -168 0
-159 167 168 0
c gate 169 -89 -168 0
-89 -169 0
-168 -169 0
89 168 169 0
c gate 170 -164 169 0
-164 -170 0
169 -170 0
164 -169 170 0
c gate 171 -90 -170 0
-90 -171 0
-170 -171 0
90 170 171 0
c gate 172 -121 -171 0
-121 -172 0
-171 -172 0
121 171 172 0
c gate 173 -102 172 0
-102 -173 0
172 -173 0
102 -172 173 0
c gate 174 -162 -168 0
-162 -174 0
-168 -174 0
162 168 174 0
c gate 175 -173 174 0
-173 -175 0
174 -175 0
173 -174 175 0
c PO
175 0
